21° run output:
{
    "Function": "kroA500.tsp",
    "Problem dimension": [
        426,
        442,
        317,
        396,
        404,
        236,
        245,
        399,
        333,
        149,
        128,
        24,
        366,
        306,
        30,
        395,
        367,
        422,
        389,
        68,
        348,
        235,
        334,
        423,
        40,
        164,
        327,
        251,
        91,
        151,
        427,
        131,
        54,
        87,
        277,
        16,
        189,
        29,
        360,
        368,
        471,
        462,
        483,
        250,
        194,
        184,
        180,
        378,
        242,
        247,
        375,
        482,
        335,
        35,
        143,
        76,
        15,
        405,
        448,
        352,
        111,
        139,
        93,
        339,
        410,
        185,
        231,
        497,
        260,
        492,
        9,
        50,
        313,
        136,
        197,
        229,
        140,
        71,
        232,
        147,
        233,
        292,
        346,
        222,
        478,
        449,
        58,
        105,
        283,
        0,
        272,
        477,
        297,
        397,
        262,
        432,
        249,
        413,
        258,
        187,
        95,
        62,
        125,
        361,
        498,
        178,
        198,
        356,
        398,
        457,
        331,
        32,
        20,
        264,
        369,
        129,
        382,
        291,
        167,
        134,
        460,
        290,
        409,
        69,
        443,
        141,
        47,
        206,
        115,
        419,
        357,
        454,
        202,
        163,
        179,
        191,
        286,
        77,
        171,
        325,
        425,
        439,
        1,
        188,
        133,
        309,
        403,
        227,
        170,
        209,
        102,
        394,
        6,
        190,
        90,
        385,
        484,
        358,
        340,
        450,
        383,
        94,
        407,
        438,
        44,
        84,
        475,
        132,
        485,
        11,
        472,
        160,
        211,
        73,
        341,
        137,
        200,
        323,
        224,
        276,
        83,
        98,
        259,
        420,
        174,
        296,
        412,
        436,
        328,
        177,
        490,
        121,
        373,
        100,
        85,
        42,
        311,
        279,
        13,
        92,
        444,
        193,
        201,
        43,
        314,
        176,
        274,
        430,
        223,
        238,
        112,
        465,
        303,
        481,
        234,
        257,
        253,
        372,
        109,
        486,
        467,
        135,
        89,
        205,
        384,
        495,
        10,
        212,
        101,
        241,
        284,
        326,
        267,
        218,
        421,
        4,
        106,
        463,
        307,
        142,
        217,
        65,
        322,
        447,
        268,
        3,
        172,
        354,
        473,
        319,
        287,
        72,
        351,
        380,
        226,
        25,
        416,
        415,
        104,
        349,
        208,
        126,
        45,
        428,
        26,
        456,
        225,
        78,
        308,
        122,
        470,
        192,
        28,
        117,
        440,
        312,
        168,
        7,
        123,
        237,
        239,
        266,
        273,
        446,
        181,
        216,
        408,
        70,
        60,
        64,
        156,
        324,
        166,
        159,
        53,
        124,
        265,
        499,
        386,
        246,
        350,
        289,
        298,
        300,
        445,
        33,
        458,
        113,
        37,
        255,
        14,
        304,
        270,
        8,
        81,
        371,
        393,
        12,
        48,
        353,
        230,
        379,
        381,
        203,
        338,
        390,
        310,
        254,
        401,
        365,
        363,
        280,
        99,
        146,
        86,
        46,
        221,
        288,
        330,
        75,
        429,
        336,
        376,
        301,
        355,
        282,
        97,
        61,
        27,
        17,
        337,
        162,
        19,
        374,
        417,
        387,
        207,
        418,
        370,
        302,
        96,
        392,
        67,
        34,
        155,
        491,
        321,
        305,
        329,
        494,
        295,
        103,
        80,
        318,
        51,
        256,
        41,
        316,
        261,
        479,
        391,
        2,
        214,
        345,
        173,
        59,
        55,
        195,
        57,
        488,
        278,
        145,
        74,
        452,
        271,
        464,
        183,
        228,
        213,
        388,
        63,
        424,
        435,
        496,
        199,
        320,
        243,
        116,
        52,
        118,
        433,
        38,
        21,
        79,
        110,
        281,
        182,
        210,
        342,
        36,
        343,
        175,
        489,
        474,
        23,
        39,
        362,
        414,
        219,
        82,
        406,
        294,
        466,
        240,
        56,
        165,
        453,
        107,
        344,
        127,
        244,
        5,
        299,
        186,
        161,
        364,
        152,
        377,
        332,
        263,
        437,
        293,
        66,
        359,
        120,
        451,
        144,
        148,
        196,
        487,
        18,
        88,
        157,
        476,
        248,
        402,
        275,
        441,
        480,
        455,
        411,
        459,
        315,
        252,
        461,
        108,
        22,
        215,
        31,
        130,
        169,
        493,
        400,
        220,
        150,
        285,
        204,
        119,
        138,
        154,
        469,
        114,
        158,
        468,
        431,
        434,
        269,
        347,
        153,
        49
    ],
    "Global Optimum": 0,
    "Algorithm": "Genetic algorithm",
    "Parameters": {
        "population": 30,
        "offspring": 30,
        "mutation probability": 0.002,
        "crossover probability": 0.9
    },
    "Fitness": 630595,
    "Solution": [
        426,
        442,
        317,
        396,
        404,
        236,
        245,
        399,
        333,
        149,
        128,
        24,
        366,
        306,
        30,
        395,
        367,
        422,
        389,
        68,
        348,
        235,
        334,
        423,
        40,
        164,
        327,
        251,
        91,
        151,
        427,
        131,
        54,
        87,
        277,
        16,
        189,
        29,
        360,
        368,
        471,
        462,
        483,
        250,
        194,
        184,
        180,
        378,
        242,
        247,
        375,
        482,
        335,
        35,
        143,
        76,
        15,
        405,
        448,
        352,
        111,
        139,
        93,
        339,
        410,
        185,
        231,
        497,
        260,
        492,
        9,
        50,
        313,
        136,
        197,
        229,
        140,
        71,
        232,
        147,
        233,
        292,
        346,
        222,
        478,
        449,
        58,
        105,
        283,
        0,
        272,
        477,
        297,
        397,
        262,
        432,
        249,
        413,
        258,
        187,
        95,
        62,
        125,
        361,
        498,
        178,
        198,
        356,
        398,
        457,
        331,
        32,
        20,
        264,
        369,
        129,
        382,
        291,
        167,
        134,
        460,
        290,
        409,
        69,
        443,
        141,
        47,
        206,
        115,
        419,
        357,
        454,
        202,
        163,
        179,
        191,
        286,
        77,
        171,
        325,
        425,
        439,
        1,
        188,
        133,
        309,
        403,
        227,
        170,
        209,
        102,
        394,
        6,
        190,
        90,
        385,
        484,
        358,
        340,
        450,
        383,
        94,
        407,
        438,
        44,
        84,
        475,
        132,
        485,
        11,
        472,
        160,
        211,
        73,
        341,
        137,
        200,
        323,
        224,
        276,
        83,
        98,
        259,
        420,
        174,
        296,
        412,
        436,
        328,
        177,
        490,
        121,
        373,
        100,
        85,
        42,
        311,
        279,
        13,
        92,
        444,
        193,
        201,
        43,
        314,
        176,
        274,
        430,
        223,
        238,
        112,
        465,
        303,
        481,
        234,
        257,
        253,
        372,
        109,
        486,
        467,
        135,
        89,
        205,
        384,
        495,
        10,
        212,
        101,
        241,
        284,
        326,
        267,
        218,
        421,
        4,
        106,
        463,
        307,
        142,
        217,
        65,
        322,
        447,
        268,
        3,
        172,
        354,
        473,
        319,
        287,
        72,
        351,
        380,
        226,
        25,
        416,
        415,
        104,
        349,
        208,
        126,
        45,
        428,
        26,
        456,
        225,
        78,
        308,
        122,
        470,
        192,
        28,
        117,
        440,
        312,
        168,
        7,
        123,
        237,
        239,
        266,
        273,
        446,
        181,
        216,
        408,
        70,
        60,
        64,
        156,
        324,
        166,
        159,
        53,
        124,
        265,
        499,
        386,
        246,
        350,
        289,
        298,
        300,
        445,
        33,
        458,
        113,
        37,
        255,
        14,
        304,
        270,
        8,
        81,
        371,
        393,
        12,
        48,
        353,
        230,
        379,
        381,
        203,
        338,
        390,
        310,
        254,
        401,
        365,
        363,
        280,
        99,
        146,
        86,
        46,
        221,
        288,
        330,
        75,
        429,
        336,
        376,
        301,
        355,
        282,
        97,
        61,
        27,
        17,
        337,
        162,
        19,
        374,
        417,
        387,
        207,
        418,
        370,
        302,
        96,
        392,
        67,
        34,
        155,
        491,
        321,
        305,
        329,
        494,
        295,
        103,
        80,
        318,
        51,
        256,
        41,
        316,
        261,
        479,
        391,
        2,
        214,
        345,
        173,
        59,
        55,
        195,
        57,
        488,
        278,
        145,
        74,
        452,
        271,
        464,
        183,
        228,
        213,
        388,
        63,
        424,
        435,
        496,
        199,
        320,
        243,
        116,
        52,
        118,
        433,
        38,
        21,
        79,
        110,
        281,
        182,
        210,
        342,
        36,
        343,
        175,
        489,
        474,
        23,
        39,
        362,
        414,
        219,
        82,
        406,
        294,
        466,
        240,
        56,
        165,
        453,
        107,
        344,
        127,
        244,
        5,
        299,
        186,
        161,
        364,
        152,
        377,
        332,
        263,
        437,
        293,
        66,
        359,
        120,
        451,
        144,
        148,
        196,
        487,
        18,
        88,
        157,
        476,
        248,
        402,
        275,
        441,
        480,
        455,
        411,
        459,
        315,
        252,
        461,
        108,
        22,
        215,
        31,
        130,
        169,
        493,
        400,
        220,
        150,
        285,
        204,
        119,
        138,
        154,
        469,
        114,
        158,
        468,
        431,
        434,
        269,
        347,
        153,
        49
    ],
    "Nb of functions evaluations": 50010,
    "Computational time in seconds": 365.64290022850037,
    "Stopping criterion in evaluations": 50000
}